proyfinal/src/viki/013/experimentInOfficeAgust.take6.output/226d040a-061e-4ba1-922d-3d0b70bc9e3f.als.dat
{'cnf.clauses': '118081',
 'cnf.totvars': '69608',
 'conflict literals': '5',
 'conflicts': '5',
 'decisions': '1165',
 'memused.mb': '14.26',
 'outcome': 'UNSAT',
 'propagations': '22064',
 'restarts': '1',
 'solver.msecs': 30,
 'task.msecs': 84}
