proyfinal/src/viki/013/experimentInOfficeAgust.take6.output/226d040a-061e-4ba1-922d-3d0b70bc9e3f.als.out
Reading from standard input... Use '--help' for help.
============================[ Problem Statistics ]=============================
|                                                                             |
|  Number of variables:         69608                                         |
|  Number of clauses:          118081                                         |
|  Parse time:                   0.02 s                                       |
|                                                                             |
============================[ Search Statistics ]==============================
| Conflicts |          ORIGINAL         |          LEARNT          | Progress |
|           |    Vars  Clauses Literals |    Limit  Clauses Lit/Cl |          |
===============================================================================
===============================================================================
restarts              : 1
conflicts             : 5              (164 /sec)
decisions             : 1165           (0.00 % random) (38246 /sec)
propagations          : 22064          (724336 /sec)
conflict literals     : 5              (0.00 % deleted)
Memory used           : 14.26 MB
CPU time              : 0.030461 s

UNSATISFIABLE
